block_table_value:
[[1 1 1 0 0 0 0 0]
 [1 1 1 1 0 0 0 0]
 [1 1 1 1 0 0 0 0]
 [0 1 1 1 0 0 0 0]
 [0 0 0 0 1 1 1 0]
 [0 0 0 0 1 1 1 1]
 [0 0 0 0 1 1 1 1]
 [0 0 0 0 0 1 1 1]]
Set parameter Username
Set parameter LicenseID to value 2603695
Academic license - for non-commercial use only - expires 2025-12-26
Gurobi Optimizer version 11.0.3 build v11.0.3rc0 (linux64 - "Debian GNU/Linux 12 (bookworm)")

CPU model: Intel(R) Xeon(R) Gold 6252 CPU @ 2.10GHz, instruction set [SSE2|AVX|AVX2|AVX512]
Thread count: 48 physical cores, 96 logical processors, using up to 32 threads

Optimize a model with 412 rows, 337 columns and 1312 nonzeros
Model fingerprint: 0x51695277
Variable types: 0 continuous, 337 integer (160 binary)
Coefficient statistics:
  Matrix range     [1e+00, 2e+00]
  Objective range  [1e+00, 1e+00]
  Bounds range     [1e+00, 1e+00]
  RHS range        [1e+00, 3e+00]
Presolve removed 72 rows and 48 columns
Presolve time: 0.00s
Presolved: 340 rows, 289 columns, 1168 nonzeros
Variable types: 0 continuous, 289 integer (272 binary)
Found heuristic solution: objective 9.0000000
Found heuristic solution: objective 8.0000000

Root relaxation: objective 3.000000e+00, 350 iterations, 0.01 seconds (0.00 work units)

    Nodes    |    Current Node    |     Objective Bounds      |     Work
 Expl Unexpl |  Obj  Depth IntInf | Incumbent    BestBd   Gap | It/Node Time

     0     0    3.00000    0  144    8.00000    3.00000  62.5%     -    0s
H    0     0                       7.0000000    3.00000  57.1%     -    0s
H    0     0                       6.0000000    3.00000  50.0%     -    0s
     0     0    3.43131    0  195    6.00000    3.43131  42.8%     -    0s
H    0     0                       5.0000000    4.00000  20.0%     -    0s
H    0     0                       4.0000000    4.00000  0.00%     -    0s
     0     0          -    0         4.00000    4.00000  0.00%     -    0s

Cutting planes:
  Gomory: 2
  Zero half: 1
  RLT: 12

Explored 1 nodes (951 simplex iterations) in 0.07 seconds (0.04 work units)
Thread count was 32 (of 96 available processors)

Solution count 6: 4 5 6 ... 9

Optimal solution found (tolerance 1.00e-04)
Best objective 4.000000000000e+00, best bound 4.000000000000e+00, gap 0.0000%
LP solve time: 0.07425093650817871 s
Optimal value: 4.0
LP result:
x_0_1_0: -0.0
x_0_1_1: 1.0
x_0_1_2: -0.0
x_0_1_3: -0.0
x_0_1_4: -0.0
x_0_1_5: -0.0
x_0_1_6: -0.0
x_0_1_7: -0.0
x_0_2_0: 1.0
x_0_2_1: -0.0
x_0_2_2: -0.0
x_0_2_3: -0.0
x_0_2_4: -0.0
x_0_2_5: -0.0
x_0_2_6: -0.0
x_0_2_7: -0.0
x_1_0_0: -0.0
x_1_0_1: -0.0
x_1_0_2: 1.0
x_1_0_3: -0.0
x_1_0_4: -0.0
x_1_0_5: -0.0
x_1_0_6: -0.0
x_1_0_7: -0.0
x_1_2_0: -0.0
x_1_2_1: -0.0
x_1_2_2: 1.0
x_1_2_3: -0.0
x_1_2_4: -0.0
x_1_2_5: -0.0
x_1_2_6: -0.0
x_1_2_7: -0.0
x_1_3_0: -0.0
x_1_3_1: 1.0
x_1_3_2: -0.0
x_1_3_3: -0.0
x_1_3_4: -0.0
x_1_3_5: -0.0
x_1_3_6: -0.0
x_1_3_7: -0.0
x_2_0_0: -0.0
x_2_0_1: -0.0
x_2_0_2: 1.0
x_2_0_3: -0.0
x_2_0_4: -0.0
x_2_0_5: -0.0
x_2_0_6: -0.0
x_2_0_7: -0.0
x_2_1_0: -0.0
x_2_1_1: -0.0
x_2_1_2: -0.0
x_2_1_3: 1.0
x_2_1_4: -0.0
x_2_1_5: -0.0
x_2_1_6: -0.0
x_2_1_7: -0.0
x_2_3_0: -0.0
x_2_3_1: -0.0
x_2_3_2: -0.0
x_2_3_3: 1.0
x_2_3_4: -0.0
x_2_3_5: -0.0
x_2_3_6: -0.0
x_2_3_7: -0.0
x_3_1_0: -0.0
x_3_1_1: -0.0
x_3_1_2: -0.0
x_3_1_3: 1.0
x_3_1_4: -0.0
x_3_1_5: -0.0
x_3_1_6: -0.0
x_3_1_7: -0.0
x_3_2_0: 1.0
x_3_2_1: -0.0
x_3_2_2: -0.0
x_3_2_3: -0.0
x_3_2_4: -0.0
x_3_2_5: -0.0
x_3_2_6: -0.0
x_3_2_7: -0.0
x_4_5_0: -0.0
x_4_5_1: -0.0
x_4_5_2: -0.0
x_4_5_3: -0.0
x_4_5_4: -0.0
x_4_5_5: -0.0
x_4_5_6: 1.0
x_4_5_7: -0.0
x_4_6_0: -0.0
x_4_6_1: -0.0
x_4_6_2: -0.0
x_4_6_3: -0.0
x_4_6_4: -0.0
x_4_6_5: -0.0
x_4_6_6: 1.0
x_4_6_7: -0.0
x_5_4_0: -0.0
x_5_4_1: -0.0
x_5_4_2: -0.0
x_5_4_3: -0.0
x_5_4_4: -0.0
x_5_4_5: -0.0
x_5_4_6: -0.0
x_5_4_7: 1.0
x_5_6_0: -0.0
x_5_6_1: -0.0
x_5_6_2: -0.0
x_5_6_3: -0.0
x_5_6_4: -0.0
x_5_6_5: 1.0
x_5_6_6: -0.0
x_5_6_7: -0.0
x_5_7_0: -0.0
x_5_7_1: -0.0
x_5_7_2: -0.0
x_5_7_3: -0.0
x_5_7_4: -0.0
x_5_7_5: -0.0
x_5_7_6: -0.0
x_5_7_7: 1.0
x_6_4_0: -0.0
x_6_4_1: -0.0
x_6_4_2: -0.0
x_6_4_3: -0.0
x_6_4_4: 1.0
x_6_4_5: -0.0
x_6_4_6: -0.0
x_6_4_7: -0.0
x_6_5_0: -0.0
x_6_5_1: -0.0
x_6_5_2: -0.0
x_6_5_3: -0.0
x_6_5_4: -0.0
x_6_5_5: -0.0
x_6_5_6: 1.0
x_6_5_7: -0.0
x_6_7_0: -0.0
x_6_7_1: -0.0
x_6_7_2: -0.0
x_6_7_3: -0.0
x_6_7_4: 1.0
x_6_7_5: -0.0
x_6_7_6: -0.0
x_6_7_7: -0.0
x_7_5_0: -0.0
x_7_5_1: -0.0
x_7_5_2: -0.0
x_7_5_3: -0.0
x_7_5_4: -0.0
x_7_5_5: 1.0
x_7_5_6: -0.0
x_7_5_7: -0.0
x_7_6_0: -0.0
x_7_6_1: -0.0
x_7_6_2: -0.0
x_7_6_3: -0.0
x_7_6_4: -0.0
x_7_6_5: 1.0
x_7_6_6: -0.0
x_7_6_7: -0.0
a_0_0: 1.0
a_0_1: -0.0
a_0_2: -0.0
a_0_3: 1.0
a_0_4: -0.0
a_0_5: -0.0
a_0_6: -0.0
a_0_7: -0.0
a_1_0: 1.0
a_1_1: 1.0
a_1_2: -0.0
a_1_3: -0.0
a_1_4: -0.0
a_1_5: -0.0
a_1_6: -0.0
a_1_7: -0.0
a_2_0: -0.0
a_2_1: 1.0
a_2_2: 1.0
a_2_3: -0.0
a_2_4: -0.0
a_2_5: -0.0
a_2_6: -0.0
a_2_7: -0.0
a_3_0: -0.0
a_3_1: -0.0
a_3_2: 1.0
a_3_3: 1.0
a_3_4: -0.0
a_3_5: -0.0
a_3_6: -0.0
a_3_7: -0.0
a_4_0: -0.0
a_4_1: -0.0
a_4_2: -0.0
a_4_3: -0.0
a_4_4: 1.0
a_4_5: -0.0
a_4_6: 1.0
a_4_7: -0.0
a_5_0: -0.0
a_5_1: -0.0
a_5_2: -0.0
a_5_3: -0.0
a_5_4: -0.0
a_5_5: 1.0
a_5_6: -0.0
a_5_7: 1.0
a_6_0: -0.0
a_6_1: -0.0
a_6_2: -0.0
a_6_3: -0.0
a_6_4: 1.0
a_6_5: -0.0
a_6_6: 1.0
a_6_7: -0.0
a_7_0: -0.0
a_7_1: -0.0
a_7_2: -0.0
a_7_3: -0.0
a_7_4: -0.0
a_7_5: 1.0
a_7_6: -0.0
a_7_7: 1.0
b_0_0: 1.0
b_0_1: -0.0
b_0_2: 1.0
b_0_3: -0.0
b_0_4: -0.0
b_0_5: -0.0
b_0_6: -0.0
b_0_7: -0.0
b_1_0: -0.0
b_1_1: 1.0
b_1_2: -0.0
b_1_3: 1.0
b_1_4: -0.0
b_1_5: -0.0
b_1_6: -0.0
b_1_7: -0.0
b_2_0: 1.0
b_2_1: -0.0
b_2_2: 1.0
b_2_3: -0.0
b_2_4: -0.0
b_2_5: -0.0
b_2_6: -0.0
b_2_7: -0.0
b_3_0: -0.0
b_3_1: 1.0
b_3_2: -0.0
b_3_3: 1.0
b_3_4: -0.0
b_3_5: -0.0
b_3_6: -0.0
b_3_7: -0.0
b_4_0: -0.0
b_4_1: -0.0
b_4_2: -0.0
b_4_3: -0.0
b_4_4: 1.0
b_4_5: -0.0
b_4_6: -0.0
b_4_7: 1.0
b_5_0: -0.0
b_5_1: -0.0
b_5_2: -0.0
b_5_3: -0.0
b_5_4: -0.0
b_5_5: 1.0
b_5_6: 1.0
b_5_7: -0.0
b_6_0: -0.0
b_6_1: -0.0
b_6_2: -0.0
b_6_3: -0.0
b_6_4: -0.0
b_6_5: 1.0
b_6_6: 1.0
b_6_7: -0.0
b_7_0: -0.0
b_7_1: -0.0
b_7_2: -0.0
b_7_3: -0.0
b_7_4: 1.0
b_7_5: -0.0
b_7_6: -0.0
b_7_7: 1.0
A_0: 1.0
B_0: 1.0
C_0: 1.0
D_0: 1.0
Cin_0: 4.0
Cout_0: 4.0
A_1: 1.0
B_1: 1.0
C_1: 1.0
D_1: 1.0
Cin_1: 4.0
Cout_1: 4.0
A_2: 1.0
B_2: 1.0
C_2: 1.0
D_2: 1.0
Cin_2: 4.0
Cout_2: 4.0
A_3: 1.0
B_3: 1.0
C_3: 1.0
D_3: 1.0
Cin_3: 4.0
Cout_3: 4.0
A_4: 1.0
B_4: 1.0
C_4: 1.0
D_4: 1.0
Cin_4: 4.0
Cout_4: 4.0
A_5: 1.0
B_5: 1.0
C_5: 1.0
D_5: 1.0
Cin_5: 4.0
Cout_5: 4.0
A_6: 1.0
B_6: 1.0
C_6: 1.0
D_6: 1.0
Cin_6: 4.0
Cout_6: 4.0
A_7: 1.0
B_7: 1.0
C_7: 1.0
D_7: 1.0
Cin_7: 4.0
Cout_7: 4.0
Comm_Volume: 4.0
Allocation Matrix:
0  1  0  /  /  /  /  /  
2  1  2  1  /  /  /  /  
2  3  2  3  /  /  /  /  
/  3  0  3  /  /  /  /  
/  /  /  /  4  6  6  /  
/  /  /  /  7  5  5  7  
/  /  /  /  4  6  6  4  
/  /  /  /  /  5  5  7  
